computational_data/solutions/ER_n30_p035_s4.sol
Optimal - objective value 8.00000000
      2 r_2                         1                       1
      7 r_7                         1                       1
     19 r_19                        1                       1
     24 r_24                        1                       1
     30 b_0                         1                       1
     39 b_9                         1                       1
     57 b_27                        1                       1
     59 b_29                        1                       1
