computational_data/logs/ER_n30_p035_s4.log
Welcome to the CBC MILP Solver 
Version: 2.10.12 
Build Date: Aug 20 2024 

command line - /opt/homebrew/bin/cbc computational_data/lp/ER_n30_p035_s4.lp seconds 10.0 solve solu computational_data/solutions/ER_n30_p035_s4.sol (default strategy 1)
seconds was changed from 1e+100 to 10
Continuous objective value is 5.18794 - 0.00 seconds
Cgl0003I 0 fixed, 0 tightened bounds, 180 strengthened rows, 0 substitutions
Cgl0003I 0 fixed, 0 tightened bounds, 173 strengthened rows, 0 substitutions
Cgl0003I 0 fixed, 0 tightened bounds, 81 strengthened rows, 0 substitutions
Cgl0003I 0 fixed, 0 tightened bounds, 24 strengthened rows, 0 substitutions
Cgl0003I 0 fixed, 0 tightened bounds, 4 strengthened rows, 0 substitutions
Cgl0003I 0 fixed, 0 tightened bounds, 2 strengthened rows, 0 substitutions
Cgl0003I 0 fixed, 0 tightened bounds, 1 strengthened rows, 0 substitutions
Cgl0004I processed model has 274 rows, 60 columns (60 integer (60 of which binary)) and 1478 elements
Cutoff increment increased from 1e-05 to 0.9999
Cbc0038I Initial state - 34 integers unsatisfied sum - 5.18794
Cbc0038I Pass   1: suminf.    5.18999 (35) obj. 5.18999 iterations 5
Cbc0038I Pass   2: suminf.    9.00000 (18) obj. 9 iterations 67
Cbc0038I Pass   3: suminf.    5.33333 (21) obj. 8 iterations 25
Cbc0038I Pass   4: suminf.    4.29070 (26) obj. 8.63953 iterations 18
Cbc0038I Pass   5: suminf.    4.44444 (22) obj. 9 iterations 62
Cbc0038I Pass   6: suminf.    2.00000 (4) obj. 11 iterations 32
Cbc0038I Pass   7: suminf.    2.00000 (4) obj. 11 iterations 0
Cbc0038I Pass   8: suminf.    0.00000 (0) obj. 11 iterations 6
Cbc0038I Solution found of 11
Cbc0038I Before mini branch and bound, 13 integers at bound fixed and 0 continuous
Cbc0038I Full problem 274 rows 60 columns, reduced to 254 rows 47 columns - 2 fixed gives 129, 30 - ok now
Cbc0038I Full problem 274 rows 60 columns, reduced to 129 rows 30 columns
Cbc0038I Mini branch and bound improved solution from 11 to 10 (0.02 seconds)
Cbc0038I Round again with cutoff of 8.61888
Cbc0038I Pass   9: suminf.    5.18999 (35) obj. 5.18999 iterations 0
Cbc0038I Pass  10: suminf.    5.50000 (20) obj. 5.5 iterations 38
Cbc0038I Pass  11: suminf.    4.94258 (28) obj. 5.88105 iterations 32
Cbc0038I Pass  12: suminf.    5.71429 (18) obj. 6.14286 iterations 44
Cbc0038I Pass  13: suminf.    4.25217 (28) obj. 6.94783 iterations 42
Cbc0038I Pass  14: suminf.    3.87500 (19) obj. 7.375 iterations 18
Cbc0038I Pass  15: suminf.    6.30186 (20) obj. 8.61888 iterations 62
Cbc0038I Pass  16: suminf.    2.88000 (17) obj. 8.6 iterations 42
Cbc0038I Pass  17: suminf.    1.26370 (15) obj. 8.61888 iterations 39
Cbc0038I Pass  18: suminf.    0.76223 (4) obj. 8.61888 iterations 28
Cbc0038I Pass  19: suminf.    2.00000 (4) obj. 8 iterations 35
Cbc0038I Pass  20: suminf.    0.00000 (0) obj. 8 iterations 15
Cbc0038I Solution found of 8
Cbc0038I Before mini branch and bound, 9 integers at bound fixed and 0 continuous
Cbc0038I Mini branch and bound did not improve solution (0.02 seconds)
Cbc0038I Round again with cutoff of 6.63767
Cbc0038I Pass  21: suminf.    5.18999 (35) obj. 5.18999 iterations 0
Cbc0038I Pass  22: suminf.    6.63767 (15) obj. 6.63767 iterations 49
Cbc0038I Pass  23: suminf.    4.95880 (26) obj. 6.53184 iterations 29
Cbc0038I Pass  24: suminf.    4.42074 (27) obj. 6.63767 iterations 23
Cbc0038I Pass  25: suminf.    4.65905 (23) obj. 6.63767 iterations 48
Cbc0038I Pass  26: suminf.    4.36523 (23) obj. 6.63767 iterations 15
Cbc0038I Pass  27: suminf.    4.09700 (19) obj. 6.63767 iterations 16
Cbc0038I Pass  28: suminf.    5.43254 (20) obj. 6.63767 iterations 42
Cbc0038I Pass  29: suminf.    4.17927 (23) obj. 6.63767 iterations 32
Cbc0038I Pass  30: suminf.    6.26461 (23) obj. 6.63767 iterations 56
Cbc0038I Pass  31: suminf.    5.23253 (27) obj. 6.61627 iterations 46
Cbc0038I Pass  32: suminf.    4.89691 (22) obj. 6.63767 iterations 43
Cbc0038I Pass  33: suminf.    4.22764 (25) obj. 6.63767 iterations 26
Cbc0038I Pass  34: suminf.    3.96356 (24) obj. 6.63767 iterations 13
Cbc0038I Pass  35: suminf.    5.36233 (21) obj. 6.63767 iterations 28
Cbc0038I Pass  36: suminf.    4.78112 (27) obj. 6.63767 iterations 23
Cbc0038I Pass  37: suminf.    5.42939 (25) obj. 6.63767 iterations 40
Cbc0038I Pass  38: suminf.    4.64438 (23) obj. 6.63767 iterations 28
Cbc0038I Pass  39: suminf.    6.46739 (24) obj. 6.63767 iterations 35
Cbc0038I Pass  40: suminf.    5.01194 (30) obj. 6.06866 iterations 52
Cbc0038I Pass  41: suminf.    6.63767 (22) obj. 6.63767 iterations 42
Cbc0038I Pass  42: suminf.    5.18999 (35) obj. 5.18999 iterations 43
Cbc0038I Pass  43: suminf.    5.63636 (17) obj. 6 iterations 52
Cbc0038I Pass  44: suminf.    4.64706 (23) obj. 6.4902 iterations 32
Cbc0038I Pass  45: suminf.    5.69358 (24) obj. 6.63767 iterations 57
Cbc0038I Pass  46: suminf.    4.84622 (25) obj. 6.63767 iterations 26
Cbc0038I Pass  47: suminf.    6.39906 (25) obj. 6.63767 iterations 42
Cbc0038I Pass  48: suminf.    4.88175 (30) obj. 6.3793 iterations 45
Cbc0038I Pass  49: suminf.    6.30434 (21) obj. 6.63767 iterations 53
Cbc0038I Pass  50: suminf.    5.03684 (26) obj. 6.04556 iterations 46
Cbc0038I No solution found this major pass
Cbc0038I Before mini branch and bound, 0 integers at bound fixed and 0 continuous
Cbc0038I Full problem 274 rows 60 columns, reduced to 274 rows 60 columns - 10 fixed gives 0, 0 - ok now
Cbc0038I Mini branch and bound did not improve solution (0.04 seconds)
Cbc0038I After 0.04 seconds - Feasibility pump exiting with objective of 8 - took 0.03 seconds
Cbc0012I Integer solution of 8 found by feasibility pump after 0 iterations and 0 nodes (0.04 seconds)
Cbc0038I Full problem 274 rows 60 columns, reduced to 206 rows 35 columns - 1 fixed gives 130, 27 - ok now
Cbc0031I 8 added rows had average density of 60
Cbc0013I At root node, 8 cuts changed objective from 5.1879433 to 5.5055362 in 100 passes
Cbc0014I Cut generator 0 (Probing) - 0 row cuts average 0.0 elements, 0 column cuts (0 active)  in 0.038 seconds - new frequency is -100
Cbc0014I Cut generator 1 (Gomory) - 1042 row cuts average 60.0 elements, 0 column cuts (0 active)  in 0.028 seconds - new frequency is -100
Cbc0014I Cut generator 2 (Knapsack) - 0 row cuts average 0.0 elements, 0 column cuts (0 active)  in 0.004 seconds - new frequency is -100
Cbc0014I Cut generator 3 (Clique) - 0 row cuts average 0.0 elements, 0 column cuts (0 active)  in 0.008 seconds - new frequency is -100
Cbc0014I Cut generator 4 (MixedIntegerRounding2) - 140 row cuts average 60.0 elements, 0 column cuts (0 active)  in 0.024 seconds - new frequency is 1
Cbc0014I Cut generator 5 (FlowCover) - 0 row cuts average 0.0 elements, 0 column cuts (0 active)  in 0.001 seconds - new frequency is -100
Cbc0010I After 0 nodes, 1 on tree, 8 best solution, best possible 5.5055362 (0.27 seconds)
Cbc0038I Full problem 274 rows 60 columns, reduced to 105 rows 23 columns
Cbc0001I Search completed - best objective 8, took 6695 iterations and 64 nodes (0.49 seconds)
Cbc0032I Strong branching done 964 times (17639 iterations), fathomed 12 nodes and fixed 16 variables
Cbc0035I Maximum depth 15, 129 variables fixed on reduced cost
Cuts at root node changed objective from 5.18794 to 5.50554
Probing was tried 100 times and created 0 cuts of which 0 were active after adding rounds of cuts (0.038 seconds)
Gomory was tried 100 times and created 1042 cuts of which 0 were active after adding rounds of cuts (0.028 seconds)
Knapsack was tried 100 times and created 0 cuts of which 0 were active after adding rounds of cuts (0.004 seconds)
Clique was tried 100 times and created 0 cuts of which 0 were active after adding rounds of cuts (0.008 seconds)
MixedIntegerRounding2 was tried 122 times and created 146 cuts of which 0 were active after adding rounds of cuts (0.027 seconds)
FlowCover was tried 100 times and created 0 cuts of which 0 were active after adding rounds of cuts (0.001 seconds)
TwoMirCuts was tried 1 times and created 0 cuts of which 0 were active after adding rounds of cuts (0.000 seconds)
ZeroHalf was tried 1 times and created 0 cuts of which 0 were active after adding rounds of cuts (0.001 seconds)

Result - Optimal solution found

Objective value:                8.00000000
Enumerated nodes:               64
Total iterations:               6695
Time (CPU seconds):             0.50
Time (Wallclock seconds):       0.51

Total time (CPU seconds):       0.50   (Wallclock seconds):       0.51

